NAME /Users/henri/Research/solvers/instances/idol-instances/robust/collection/spp_dkp_Lefebvre_et_al_2026/shortest_path_9_4/uncertainty_sets/discrete_knapsack
ROWS
 N  OBJ
 L  primal_lower
COLUMNS
    MARKER    'MARKER'                 'INTORG'
    y[0,1]     OBJ        0
    y[0,1]     primal_lower -3.99
    y[0,2]     OBJ        0
    y[0,2]     primal_lower -3.23
    y[0,3]     OBJ        0
    y[0,3]     primal_lower -1.27
    y[0,4]     OBJ        0
    y[0,4]     primal_lower -3.86
    y[0,5]     OBJ        0
    y[0,5]     primal_lower -1.59
    y[0,6]     OBJ        0
    y[0,6]     primal_lower -4.77
    y[0,8]     OBJ        0
    y[0,8]     primal_lower -0.22
    y[1,0]     OBJ        0
    y[1,0]     primal_lower -2.24
    y[1,2]     OBJ        0
    y[1,2]     primal_lower -4.64
    y[1,3]     OBJ        0
    y[1,3]     primal_lower -2.31
    y[1,4]     OBJ        0
    y[1,4]     primal_lower -2.58
    y[1,6]     OBJ        0
    y[1,6]     primal_lower -0.43
    y[2,0]     OBJ        0
    y[2,0]     primal_lower -2.17
    y[2,1]     OBJ        0
    y[2,1]     primal_lower -3.79
    y[2,3]     OBJ        0
    y[2,3]     primal_lower -4.41
    y[2,4]     OBJ        0
    y[2,4]     primal_lower -1.65
    y[2,5]     OBJ        0
    y[2,5]     primal_lower -0.53
    y[2,6]     OBJ        0
    y[2,6]     primal_lower -4.08
    y[2,7]     OBJ        0
    y[2,7]     primal_lower -2.01
    y[2,8]     OBJ        0
    y[2,8]     primal_lower -3.19
    y[3,0]     OBJ        0
    y[3,0]     primal_lower -0.18
    y[3,1]     OBJ        0
    y[3,1]     primal_lower -1.53
    y[3,2]     OBJ        0
    y[3,2]     primal_lower -0.24
    y[3,4]     OBJ        0
    y[3,4]     primal_lower -1.89
    y[3,5]     OBJ        0
    y[3,5]     primal_lower -1.33
    y[3,7]     OBJ        0
    y[3,7]     primal_lower -5.04
    y[3,8]     OBJ        0
    y[3,8]     primal_lower -2.01
    y[4,0]     OBJ        0
    y[4,0]     primal_lower -1.56
    y[4,1]     OBJ        0
    y[4,1]     primal_lower -1.12
    y[4,2]     OBJ        0
    y[4,2]     primal_lower -2.51
    y[4,3]     OBJ        0
    y[4,3]     primal_lower -0.29
    y[4,5]     OBJ        0
    y[4,5]     primal_lower -1.47
    y[4,6]     OBJ        0
    y[4,6]     primal_lower -1.2
    y[4,7]     OBJ        0
    y[4,7]     primal_lower -4.9
    y[5,0]     OBJ        0
    y[5,0]     primal_lower -3.13
    y[5,2]     OBJ        0
    y[5,2]     primal_lower -4.39
    y[5,3]     OBJ        0
    y[5,3]     primal_lower -0.46
    y[5,4]     OBJ        0
    y[5,4]     primal_lower -0.76
    y[5,6]     OBJ        0
    y[5,6]     primal_lower -3.42
    y[5,7]     OBJ        0
    y[5,7]     primal_lower -4.98
    y[5,8]     OBJ        0
    y[5,8]     primal_lower -0.12
    y[6,0]     OBJ        0
    y[6,0]     primal_lower -4.62
    y[6,1]     OBJ        0
    y[6,1]     primal_lower -0.3
    y[6,2]     OBJ        0
    y[6,2]     primal_lower -3.84
    y[6,4]     OBJ        0
    y[6,4]     primal_lower -0.33
    y[6,5]     OBJ        0
    y[6,5]     primal_lower -1.3
    y[6,8]     OBJ        0
    y[6,8]     primal_lower -0.86
    y[7,2]     OBJ        0
    y[7,2]     primal_lower -0.99
    y[7,3]     OBJ        0
    y[7,3]     primal_lower -0.54
    y[7,4]     OBJ        0
    y[7,4]     primal_lower -2.65
    y[7,5]     OBJ        0
    y[7,5]     primal_lower -0.03
    y[7,8]     OBJ        0
    y[7,8]     primal_lower -4.02
    y[8,0]     OBJ        0
    y[8,0]     primal_lower -0.71
    y[8,2]     OBJ        0
    y[8,2]     primal_lower -0.54
    y[8,3]     OBJ        0
    y[8,3]     primal_lower -2.19
    y[8,5]     OBJ        0
    y[8,5]     primal_lower -1.11
    y[8,6]     OBJ        0
    y[8,6]     primal_lower -4.25
    y[8,7]     OBJ        0
    y[8,7]     primal_lower -0.03
    u[0,1]     OBJ        0
    u[0,1]     primal_lower 14
    u[0,2]     OBJ        0
    u[0,2]     primal_lower 72
    u[0,3]     OBJ        0
    u[0,3]     primal_lower 54
    u[0,4]     OBJ        0
    u[0,4]     primal_lower 85
    u[0,5]     OBJ        0
    u[0,5]     primal_lower 84
    u[0,6]     OBJ        0
    u[0,6]     primal_lower 58
    u[0,8]     OBJ        0
    u[0,8]     primal_lower 77
    u[1,0]     OBJ        0
    u[1,0]     primal_lower 22
    u[1,2]     OBJ        0
    u[1,2]     primal_lower 82
    u[1,3]     OBJ        0
    u[1,3]     primal_lower 96
    u[1,4]     OBJ        0
    u[1,4]     primal_lower 48
    u[1,6]     OBJ        0
    u[1,6]     primal_lower 75
    u[2,0]     OBJ        0
    u[2,0]     primal_lower 83
    u[2,1]     OBJ        0
    u[2,1]     primal_lower 12
    u[2,3]     OBJ        0
    u[2,3]     primal_lower 6
    u[2,4]     OBJ        0
    u[2,4]     primal_lower 90
    u[2,5]     OBJ        0
    u[2,5]     primal_lower 15
    u[2,6]     OBJ        0
    u[2,6]     primal_lower 61
    u[2,7]     OBJ        0
    u[2,7]     primal_lower 12
    u[2,8]     OBJ        0
    u[2,8]     primal_lower 57
    u[3,0]     OBJ        0
    u[3,0]     primal_lower 42
    u[3,1]     OBJ        0
    u[3,1]     primal_lower 65
    u[3,2]     OBJ        0
    u[3,2]     primal_lower 1
    u[3,4]     OBJ        0
    u[3,4]     primal_lower 37
    u[3,5]     OBJ        0
    u[3,5]     primal_lower 90
    u[3,7]     OBJ        0
    u[3,7]     primal_lower 5
    u[3,8]     OBJ        0
    u[3,8]     primal_lower 26
    u[4,0]     OBJ        0
    u[4,0]     primal_lower 40
    u[4,1]     OBJ        0
    u[4,1]     primal_lower 83
    u[4,2]     OBJ        0
    u[4,2]     primal_lower 33
    u[4,3]     OBJ        0
    u[4,3]     primal_lower 71
    u[4,5]     OBJ        0
    u[4,5]     primal_lower 26
    u[4,6]     OBJ        0
    u[4,6]     primal_lower 27
    u[4,7]     OBJ        0
    u[4,7]     primal_lower 92
    u[5,0]     OBJ        0
    u[5,0]     primal_lower 98
    u[5,2]     OBJ        0
    u[5,2]     primal_lower 72
    u[5,3]     OBJ        0
    u[5,3]     primal_lower 55
    u[5,4]     OBJ        0
    u[5,4]     primal_lower 37
    u[5,6]     OBJ        0
    u[5,6]     primal_lower 44
    u[5,7]     OBJ        0
    u[5,7]     primal_lower 36
    u[5,8]     OBJ        0
    u[5,8]     primal_lower 19
    u[6,0]     OBJ        0
    u[6,0]     primal_lower 96
    u[6,1]     OBJ        0
    u[6,1]     primal_lower 34
    u[6,2]     OBJ        0
    u[6,2]     primal_lower 61
    u[6,4]     OBJ        0
    u[6,4]     primal_lower 94
    u[6,5]     OBJ        0
    u[6,5]     primal_lower 74
    u[6,8]     OBJ        0
    u[6,8]     primal_lower 53
    u[7,2]     OBJ        0
    u[7,2]     primal_lower 62
    u[7,3]     OBJ        0
    u[7,3]     primal_lower 39
    u[7,4]     OBJ        0
    u[7,4]     primal_lower 91
    u[7,5]     OBJ        0
    u[7,5]     primal_lower 70
    u[7,8]     OBJ        0
    u[7,8]     primal_lower 81
    u[8,0]     OBJ        0
    u[8,0]     primal_lower 44
    u[8,2]     OBJ        0
    u[8,2]     primal_lower 46
    u[8,3]     OBJ        0
    u[8,3]     primal_lower 86
    u[8,5]     OBJ        0
    u[8,5]     primal_lower 78
    u[8,6]     OBJ        0
    u[8,6]     primal_lower 36
    u[8,7]     OBJ        0
    u[8,7]     primal_lower 100
    MARKER    'MARKER'                 'INTEND'
RHS
    RHS       primal_lower 295
BOUNDS
 LI BND       y[0,1]     0
 UI BND       y[0,1]     1
 LI BND       y[0,2]     0
 UI BND       y[0,2]     1
 LI BND       y[0,3]     0
 UI BND       y[0,3]     1
 LI BND       y[0,4]     0
 UI BND       y[0,4]     1
 LI BND       y[0,5]     0
 UI BND       y[0,5]     1
 LI BND       y[0,6]     0
 UI BND       y[0,6]     1
 LI BND       y[0,8]     0
 UI BND       y[0,8]     1
 LI BND       y[1,0]     0
 UI BND       y[1,0]     1
 LI BND       y[1,2]     0
 UI BND       y[1,2]     1
 LI BND       y[1,3]     0
 UI BND       y[1,3]     1
 LI BND       y[1,4]     0
 UI BND       y[1,4]     1
 LI BND       y[1,6]     0
 UI BND       y[1,6]     1
 LI BND       y[2,0]     0
 UI BND       y[2,0]     1
 LI BND       y[2,1]     0
 UI BND       y[2,1]     1
 LI BND       y[2,3]     0
 UI BND       y[2,3]     1
 LI BND       y[2,4]     0
 UI BND       y[2,4]     1
 LI BND       y[2,5]     0
 UI BND       y[2,5]     1
 LI BND       y[2,6]     0
 UI BND       y[2,6]     1
 LI BND       y[2,7]     0
 UI BND       y[2,7]     1
 LI BND       y[2,8]     0
 UI BND       y[2,8]     1
 LI BND       y[3,0]     0
 UI BND       y[3,0]     1
 LI BND       y[3,1]     0
 UI BND       y[3,1]     1
 LI BND       y[3,2]     0
 UI BND       y[3,2]     1
 LI BND       y[3,4]     0
 UI BND       y[3,4]     1
 LI BND       y[3,5]     0
 UI BND       y[3,5]     1
 LI BND       y[3,7]     0
 UI BND       y[3,7]     1
 LI BND       y[3,8]     0
 UI BND       y[3,8]     1
 LI BND       y[4,0]     0
 UI BND       y[4,0]     1
 LI BND       y[4,1]     0
 UI BND       y[4,1]     1
 LI BND       y[4,2]     0
 UI BND       y[4,2]     1
 LI BND       y[4,3]     0
 UI BND       y[4,3]     1
 LI BND       y[4,5]     0
 UI BND       y[4,5]     1
 LI BND       y[4,6]     0
 UI BND       y[4,6]     1
 LI BND       y[4,7]     0
 UI BND       y[4,7]     1
 LI BND       y[5,0]     0
 UI BND       y[5,0]     1
 LI BND       y[5,2]     0
 UI BND       y[5,2]     1
 LI BND       y[5,3]     0
 UI BND       y[5,3]     1
 LI BND       y[5,4]     0
 UI BND       y[5,4]     1
 LI BND       y[5,6]     0
 UI BND       y[5,6]     1
 LI BND       y[5,7]     0
 UI BND       y[5,7]     1
 LI BND       y[5,8]     0
 UI BND       y[5,8]     1
 LI BND       y[6,0]     0
 UI BND       y[6,0]     1
 LI BND       y[6,1]     0
 UI BND       y[6,1]     1
 LI BND       y[6,2]     0
 UI BND       y[6,2]     1
 LI BND       y[6,4]     0
 UI BND       y[6,4]     1
 LI BND       y[6,5]     0
 UI BND       y[6,5]     1
 LI BND       y[6,8]     0
 UI BND       y[6,8]     1
 LI BND       y[7,2]     0
 UI BND       y[7,2]     1
 LI BND       y[7,3]     0
 UI BND       y[7,3]     1
 LI BND       y[7,4]     0
 UI BND       y[7,4]     1
 LI BND       y[7,5]     0
 UI BND       y[7,5]     1
 LI BND       y[7,8]     0
 UI BND       y[7,8]     1
 LI BND       y[8,0]     0
 UI BND       y[8,0]     1
 LI BND       y[8,2]     0
 UI BND       y[8,2]     1
 LI BND       y[8,3]     0
 UI BND       y[8,3]     1
 LI BND       y[8,5]     0
 UI BND       y[8,5]     1
 LI BND       y[8,6]     0
 UI BND       y[8,6]     1
 LI BND       y[8,7]     0
 UI BND       y[8,7]     1
 LI BND       u[0,1]     0
 UI BND       u[0,1]     1
 LI BND       u[0,2]     0
 UI BND       u[0,2]     1
 LI BND       u[0,3]     0
 UI BND       u[0,3]     1
 LI BND       u[0,4]     0
 UI BND       u[0,4]     1
 LI BND       u[0,5]     0
 UI BND       u[0,5]     1
 LI BND       u[0,6]     0
 UI BND       u[0,6]     1
 LI BND       u[0,8]     0
 UI BND       u[0,8]     1
 LI BND       u[1,0]     0
 UI BND       u[1,0]     1
 LI BND       u[1,2]     0
 UI BND       u[1,2]     1
 LI BND       u[1,3]     0
 UI BND       u[1,3]     1
 LI BND       u[1,4]     0
 UI BND       u[1,4]     1
 LI BND       u[1,6]     0
 UI BND       u[1,6]     1
 LI BND       u[2,0]     0
 UI BND       u[2,0]     1
 LI BND       u[2,1]     0
 UI BND       u[2,1]     1
 LI BND       u[2,3]     0
 UI BND       u[2,3]     1
 LI BND       u[2,4]     0
 UI BND       u[2,4]     1
 LI BND       u[2,5]     0
 UI BND       u[2,5]     1
 LI BND       u[2,6]     0
 UI BND       u[2,6]     1
 LI BND       u[2,7]     0
 UI BND       u[2,7]     1
 LI BND       u[2,8]     0
 UI BND       u[2,8]     1
 LI BND       u[3,0]     0
 UI BND       u[3,0]     1
 LI BND       u[3,1]     0
 UI BND       u[3,1]     1
 LI BND       u[3,2]     0
 UI BND       u[3,2]     1
 LI BND       u[3,4]     0
 UI BND       u[3,4]     1
 LI BND       u[3,5]     0
 UI BND       u[3,5]     1
 LI BND       u[3,7]     0
 UI BND       u[3,7]     1
 LI BND       u[3,8]     0
 UI BND       u[3,8]     1
 LI BND       u[4,0]     0
 UI BND       u[4,0]     1
 LI BND       u[4,1]     0
 UI BND       u[4,1]     1
 LI BND       u[4,2]     0
 UI BND       u[4,2]     1
 LI BND       u[4,3]     0
 UI BND       u[4,3]     1
 LI BND       u[4,5]     0
 UI BND       u[4,5]     1
 LI BND       u[4,6]     0
 UI BND       u[4,6]     1
 LI BND       u[4,7]     0
 UI BND       u[4,7]     1
 LI BND       u[5,0]     0
 UI BND       u[5,0]     1
 LI BND       u[5,2]     0
 UI BND       u[5,2]     1
 LI BND       u[5,3]     0
 UI BND       u[5,3]     1
 LI BND       u[5,4]     0
 UI BND       u[5,4]     1
 LI BND       u[5,6]     0
 UI BND       u[5,6]     1
 LI BND       u[5,7]     0
 UI BND       u[5,7]     1
 LI BND       u[5,8]     0
 UI BND       u[5,8]     1
 LI BND       u[6,0]     0
 UI BND       u[6,0]     1
 LI BND       u[6,1]     0
 UI BND       u[6,1]     1
 LI BND       u[6,2]     0
 UI BND       u[6,2]     1
 LI BND       u[6,4]     0
 UI BND       u[6,4]     1
 LI BND       u[6,5]     0
 UI BND       u[6,5]     1
 LI BND       u[6,8]     0
 UI BND       u[6,8]     1
 LI BND       u[7,2]     0
 UI BND       u[7,2]     1
 LI BND       u[7,3]     0
 UI BND       u[7,3]     1
 LI BND       u[7,4]     0
 UI BND       u[7,4]     1
 LI BND       u[7,5]     0
 UI BND       u[7,5]     1
 LI BND       u[7,8]     0
 UI BND       u[7,8]     1
 LI BND       u[8,0]     0
 UI BND       u[8,0]     1
 LI BND       u[8,2]     0
 UI BND       u[8,2]     1
 LI BND       u[8,3]     0
 UI BND       u[8,3]     1
 LI BND       u[8,5]     0
 UI BND       u[8,5]     1
 LI BND       u[8,6]     0
 UI BND       u[8,6]     1
 LI BND       u[8,7]     0
 UI BND       u[8,7]     1
ENDATA
